(set-logic ALL)
(set-option :produce-models true)
(declare-sort BoundSet 0)
(declare-sort UnboundSet 0)
(declare-fun Told (BoundSet BoundSet BoundSet) Bool)
(declare-fun FailedBadly (BoundSet) Bool)
(declare-fun IsNotAccurate (BoundSet) Bool)
(assert (not (=> (and (exists ((a BoundSet)) (exists ((c BoundSet)) (exists ((d BoundSet)) (exists ((b BoundSet)) (and (Told b c d) (FailedBadly a)))))) (and (forall ((e BoundSet)) (=> (FailedBadly e) (IsNotAccurate e))) (forall ((f BoundSet)) (=> (IsNotAccurate f) (FailedBadly f))))) (exists ((a BoundSet)) (IsNotAccurate a)))))
(check-sat)
(get-model)